DATASET = "thpack7";
INSTANCE = "048";

WIDTH = 233;
HEIGHT = 220;
LENGTH = 587;

NO_OF_SHAPES = 20;
size = [|
  59,49,48 |
  79,63,46 |
  95,58,38 |
  95,79,47 |
  72,46,27 |
  88,74,72 |
  90,77,67 |
  96,59,36 |
  62,55,46 |
  92,77,43 |
  100,66,41 |
  76,72,44 |
  95,68,35 |
  108,66,48 |
  86,78,52 |
  92,86,40 |
  66,39,38 |
  85,80,59 |
  86,71,33 |
  118,45,23 |
|];

verticality = [|
  1,1,1 |
  1,1,1 |
  0,1,1 |
  0,1,1 |
  0,1,1 |
  1,1,1 |
  1,1,1 |
  0,1,1 |
  1,1,1 |
  0,1,1 |
  0,1,1 |
  1,1,1 |
  0,1,1 |
  0,1,1 |
  1,1,1 |
  0,0,1 |
  1,1,1 |
  1,1,1 |
  0,0,1 |
  0,1,1 |
|];

box_count = [
  1,
  4,
  6,
  4,
  7,
  5,
  5,
  9,
  6,
  6,
  5,
  7,
  8,
  10,
  2,
  10,
  5,
  5,
  6,
  2,
];
